c   #vars: 32   #clauses: 149   #literals: 454
c 
p cnf 32 149
-2 -3 0
-4 -5 0
6 14 -22 -30 0
-8 -9 0
-10 -11 0
-3 6 14 -20 0
1 -4 15 -32 0
-12 -13 0
1 -26 31 32 0
-16 -17 0
-18 -19 0
4 5 16 17 0
-20 -21 0
2 3 -18 -19 0
1 -19 25 26 0
7 18 19 -28 0
-22 -23 0
1 15 -25 -26 0
-25 -26 0
-3 14 29 30 0
-10 18 19 24 0
-27 -28 0
1 15 -19 -25 0
-29 -30 0
8 9 29 30 0
16 17 31 32 0
-16 -17 31 32 0
-31 -32 0
4 5 25 26 0
12 13 25 26 0
1 25 26 -32 0
4 5 15 -25 0
1 -19 31 32 0
-1 -18 0
1 -4 15 -19 0
-1 -25 0
16 17 -31 -32 0
-1 -31 0
-2 -12 0
-3 -13 0
-2 -14 0
-1 4 5 15 0
-2 -27 0
-3 -28 0
2 3 27 28 0
7 -19 27 28 0
4 5 20 21 0
-2 -31 0
-3 -32 0
1 -8 15 -32 0
1 -15 31 32 0
-5 -15 0
6 20 21 -22 0
-4 -16 0
-5 -17 0
-4 -20 0
-5 -21 0
20 21 27 28 0
7 12 13 -19 0
-5 -24 0
-4 18 19 24 0
-4 -25 0
-5 -26 0
-3 6 14 -22 0
10 11 29 30 0
-22 -23 31 32 0
-6 -21 0
-6 -23 0
-7 -12 0
-8 15 25 26 0
-7 -18 0
-4 15 25 26 0
8 9 22 23 0
8 9 15 -25 0
1 -15 25 26 0
-7 -27 0
-1 15 25 26 0
8 9 18 19 0
22 23 -31 -32 0
1 18 19 -32 0
-9 -15 0
10 11 22 23 0
-8 -18 0
-9 -19 0
-8 -22 0
-9 -23 0
12 13 29 30 0
-8 -27 0
-9 -28 0
2 3 31 32 0
-8 -29 0
-9 -30 0
10 11 12 13 0
-10 -12 0
-11 -13 0
1 -8 15 -26 0
-10 -16 0
-11 -17 0
16 17 29 30 0
-10 -22 0
-11 -23 0
7 12 13 -28 0
-11 -24 0
2 3 12 13 0
-10 -29 0
-11 -30 0
-4 10 11 24 0
2 3 14 -30 0
6 14 -20 -30 0
2 3 -6 14 0
6 -14 20 21 0
18 19 31 32 0
1 -8 15 -19 0
-12 -25 0
-13 -26 0
-12 -29 0
-13 -30 0
1 15 -25 -32 0
-14 -29 0
4 5 -8 15 0
10 11 16 17 0
1 -15 18 19 0
-1 8 9 15 0
6 -20 22 23 0
4 5 -18 24 0
6 -14 22 23 0
4 5 -10 24 0
1 18 19 -26 0
-15 -26 0
-4 8 9 15 0
10 11 -18 24 0
-16 -29 0
-17 -30 0
1 -4 15 -26 0
-16 -31 0
-17 -32 0
7 -13 18 19 0
-19 -24 0
7 -13 27 28 0
-18 -31 0
-19 -32 0
8 9 27 28 0
-20 -25 0
-21 -26 0
-20 -27 0
-21 -28 0
-2 -3 18 19 0
-6 14 29 30 0
20 21 25 26 0
